\ This file has been generated by DOcplex
\ ENCODING=ISO-8859-1
\Problem name: random_problem.lp

Minimize
 obj: - 9 x0 + 6 x1 - 8 x2 - 5 x3 + 7 x4 - 8 x6 + 5 x7 - 2 x8 - 7 x9 - 3 x10
      - 10 x11 + 5 x12 - 5 x13 + 9 x14 - 2 x15 + 3 x16 - 5 x17 + 9 x18 + 9 x19
      + 2 x20 - 9 x21 + 2 x22 + 9 x23 + 6 x24 + 9 x25 + 5 x26 - 4 x27 + 2 x28
      - 5 x29 + 3 x31 + 10 x32 - 3 x33 + 5 x34 - x35 - 9 x36 + 3 x37 - x38
      - 5 x39 - 10 x40 + 3 x41 + 7 x42 + 6 x43 + 6 x44 - 4 x45 + 5 x46 - 6 x47
      - 2 x48 - 6 x49 + 4 x50 - 5 x52 - 10 x53 + 7 x54 - 8 x55 - 7 x56 + 5 x57
      + 6 x58 - 6 x59 - x60 - 3 x61 - 10 x62 + 8 x63 + 9 x64 + x65 + 4 x66
      + 4 x68 + 5 x69 + 5 x71 - 10 x72 + x73 - 4 x74 - 6 x75 + x76 + 2 x77
      + 2 x78 - 6 x79 - 5 x81 - 2 x82 - 7 x83 - 2 x84 - 10 x85 + 4 x86 + 2 x87
      - 5 x88 + 4 x89 - 5 x90 - 2 x91 - 6 x94 + 8 x95 - 7 x96 - 9 x97 - 2 x98
      + 2 x99 + 9 x100 + 6 x101 + 7 x102 - 8 x103 - 6 x104 + 7 x105 - 10 x106
      + 7 x107 + 7 x108 - x110 + 6 x111 - 9 x112 - 6 x114 - 2 x115 - 8 x116
      + 7 x117 + 7 x118 - 3 x119 + 2 x120 + 2 x121 + 3 x122 + 2 x123 + x124
      - 8 x125 - 5 x126 - 4 x127 + 5 x128 - 8 x129 + x130 - 10 x131 + 8 x133
      - 8 x134 + 8 x135 + 5 x136 - 6 x137 - x138 - 3 x139 - x140 - 4 x141
      - 3 x142 + 7 x143 - 3 x144 - x145 - 9 x146 - 5 x147 - 4 x148 - 4 x149
      + 3 x150 - 2 x151 + 7 x152 - 6 x153 - 2 x154 + 5 x155 + 7 x156 + 6 x157
      - 9 x158 - 4 x159 - 2 x160 + 5 x161 - 5 x162 - x163 - 7 x164 + 2 x165
      + 4 x166 + x167 + 10 x168 + 7 x169 - x170 - 2 x171 - 3 x172 + 2 x173
      + 8 x174 + 7 x175 + 4 x176 + 7 x177 - 5 x178 + 5 x179 + 6 x180 + 5 x181
      + 3 x182 - 9 x183 + 2 x185 + 6 x186 - 5 x187 - 5 x188 + 3 x189 - 8 x190
      + 5 x191 + x193 + x194 + x195 - 6 x196 + 10 x197 - 9 x198 - 9 x199 - x201
      + 10 x202 + x203 + 7 x204 - 7 x205 - 2 x206 - 10 x207 + 9 x208 - x209
      + 6 x210 + 5 x211 - 7 x213 + x214 + 9 x215 + 8 x216 - 5 x217 - 8 x218
      - 5 x219 - 9 x220 - 8 x221 + 6 x222 - 10 x223 - 8 x224 + x225 - 10 x226
      - 5 x227 + 4 x228 + x229 + 5 x230 + 10 x231 - 2 x232 - 7 x233 - 10 x234
      - 8 x235 + 4 x236 - 2 x237 - 3 x238 + 9 x239 - 3 x240 - 2 x241 + 7 x242
      - 2 x243 - 7 x244 - 10 x245 - 7 x246 - 5 x247 + 7 x248 + 9 x249 + [
      6 x0*x15 + 10 x0*x33 - 8 x0*x96 - 2 x0*x102 - 6 x0*x124 + 18 x1*x138
      - 18 x1*x166 - 12 x1*x171 - 12 x1*x224 - 10 x1*x240 + 12 x2*x37
      - 2 x2*x109 - 16 x2*x192 - 16 x2*x198 - 8 x2*x246 + 6 x3*x31 + 6 x3*x63
      + 4 x3*x101 - 18 x3*x183 + 18 x3*x249 + 16 x4*x9 - 2 x4*x27 - 2 x4*x107
      + 10 x4*x137 + 6 x4*x163 - 18 x5*x38 + 8 x5*x97 - 6 x5*x106 - 8 x5*x125
      - 12 x5*x192 + 16 x6*x48 - 10 x6*x81 - 16 x6*x98 + 12 x6*x185 + 20 x6*x200
      - 4 x7*x8 - 4 x7*x135 - 10 x7*x148 - 10 x7*x211 + 20 x7*x223 - 16 x8*x25
      - 10 x8*x40 - 16 x8*x121 - 12 x8*x174 - 6 x9*x74 + 18 x9*x130 - 18 x9*x190
      - 2 x9*x191 - 18 x10*x85 - 14 x10*x91 + 12 x10*x136 - 8 x10*x196
      + 10 x10*x226 - 18 x11*x16 - 8 x11*x22 - 18 x11*x117 - 12 x11*x123
      - 10 x11*x246 - 16 x12*x31 + 8 x12*x41 - 12 x12*x80 - 18 x12*x91
      - 18 x12*x155 - 6 x13*x22 + 4 x13*x108 - 18 x13*x169 + 12 x13*x212
      - 14 x13*x239 - 10 x14*x20 - 8 x14*x49 + 12 x14*x147 - 14 x14*x232
      - 2 x14*x248 + 12 x15*x50 + 18 x15*x74 + 16 x15*x131 + 2 x15*x191
      - 14 x16*x194 - 16 x16*x205 + 14 x16*x240 + 10 x16*x245 + 20 x17*x45
      - 4 x17*x85 - 20 x17*x106 + 14 x17*x186 + 20 x17*x200 + 8 x18*x99
      + 4 x18*x171 - 6 x18*x173 - 16 x18*x214 - 20 x18*x230 + 10 x19*x39
      - 6 x19*x44 - 10 x19*x56 + 10 x19*x142 + 20 x19*x187 + 20 x20*x84
      - 20 x20*x125 - 20 x20*x241 - 18 x20*x243 - 10 x21*x28 - 2 x21*x66
      - 8 x21*x73 + 12 x21*x214 + 12 x21*x236 + 4 x22*x119 + 18 x22*x139
      - 6 x22*x214 + 8 x23*x107 - 4 x23*x148 + 2 x23*x224 - 2 x23*x226
      + 14 x23*x238 + 16 x24*x33 - 10 x24*x100 + 14 x24*x114 + 18 x24*x221
      - 18 x24*x222 - 12 x25*x89 + 6 x25*x120 - 10 x25*x201 - 6 x25*x217
      - 12 x26*x66 + 18 x26*x135 - 8 x26*x147 + 12 x26*x168 + 12 x26*x179
      + 2 x27*x92 + 10 x27*x132 + 10 x27*x162 + 18 x27*x178 - 20 x28*x141
      - 10 x28*x148 - 16 x28*x158 + 18 x28*x203 - 20 x29*x130 + 16 x29*x146
      - 16 x29*x164 + 4 x29*x197 + 14 x29*x219 - 4 x30*x89 - 18 x30*x97
      + 16 x30*x141 + 14 x30*x143 + 18 x30*x185 - 2 x31*x145 + 20 x31*x206
      + 2 x31*x227 - 16 x32*x36 - 6 x32*x87 + 14 x32*x96 - 16 x32*x104
      + 12 x32*x221 - 18 x33*x118 - 18 x33*x149 + 16 x33*x180 - 12 x34*x92
      - 6 x34*x122 + 12 x34*x131 + 10 x34*x193 + 8 x34*x220 + 4 x35*x44
      - 2 x35*x60 - 20 x35*x105 - 16 x35*x113 + 4 x35*x133 - 16 x36*x90
      + 12 x36*x169 - 20 x36*x197 + 4 x36*x245 - 10 x37*x41 - 10 x37*x136
      + 6 x37*x153 + 4 x37*x176 + 18 x38*x43 - 10 x38*x72 - 10 x38*x145
      + 12 x38*x207 - 14 x39*x151 + 4 x39*x173 + 18 x39*x234 - 18 x39*x249
      + 2 x40*x108 + 20 x40*x172 - 4 x40*x176 - 2 x40*x202 + 2 x41*x45
      - 10 x41*x132 + 10 x41*x168 - 2 x42*x51 + 12 x42*x150 - 6 x42*x177
      - 6 x42*x228 + 20 x42*x241 - 8 x43*x124 + 2 x43*x160 + 6 x43*x181
      + 12 x43*x189 + 6 x44*x73 - 10 x44*x144 - 2 x44*x187 - 10 x45*x75
      + 4 x45*x88 - 14 x45*x205 + 8 x46*x60 + 20 x46*x69 + 16 x46*x79
      - 6 x46*x156 - 20 x46*x192 - 10 x47*x50 + 18 x47*x65 - 2 x47*x184
      - 10 x47*x190 - 10 x47*x227 - 10 x48*x113 - 4 x48*x175 - 12 x48*x177
      + 18 x48*x202 + 8 x49*x61 + 20 x49*x141 + 6 x49*x144 - 16 x49*x219
      - 14 x50*x124 - 16 x50*x207 - 4 x50*x241 + 18 x51*x84 - 20 x51*x108
      - 10 x51*x174 + 12 x51*x189 - 2 x52*x94 + 20 x52*x107 - 14 x52*x116
      - 20 x52*x213 - 14 x52*x217 - 2 x53*x79 + 8 x53*x92 - 20 x53*x153
      + 16 x53*x180 + 14 x53*x188 + 4 x54*x61 + 20 x54*x83 - 6 x54*x133
      - 12 x54*x149 + 4 x54*x167 + 6 x55*x103 - 12 x55*x104 + 12 x55*x175
      + 6 x55*x208 - 18 x55*x245 - 18 x56*x111 + 18 x56*x167 + 12 x56*x193
      - 14 x56*x207 + 14 x57*x120 + 2 x57*x140 + 18 x57*x152 - 14 x57*x153
      + 20 x57*x166 - 6 x58*x167 + 6 x58*x179 + 2 x58*x205 + 18 x58*x234
      - 18 x58*x242 - 18 x59*x81 + 18 x59*x91 - 12 x59*x149 - 14 x59*x223
      - 12 x59*x225 - 12 x60*x99 - 20 x60*x150 - 10 x60*x183 + 12 x61*x126
      + 12 x61*x142 - 4 x61*x199 - 2 x62*x80 + 6 x62*x81 - 4 x62*x234
      - 4 x62*x236 - 10 x62*x243 - 14 x63*x117 - 10 x63*x135 - 18 x63*x208
      - 8 x63*x209 - 2 x64*x77 - 18 x64*x114 + 14 x64*x162 - 10 x64*x229
      - 14 x64*x247 + 18 x65*x96 - 14 x65*x180 + 4 x65*x184 + 16 x65*x203
      + 14 x66*x78 - 2 x66*x216 - 8 x66*x239 - 4 x67*x86 - 4 x67*x128
      - 8 x67*x176 - 14 x67*x237 - 4 x67*x249 + 16 x68*x69 + 18 x68*x76
      - 6 x68*x106 - 12 x68*x139 + 4 x68*x202 - 2 x69*x96 + 8 x69*x140
      - 16 x69*x196 + 10 x70*x109 + 16 x70*x110 + 20 x70*x130 - 12 x70*x159
      - 10 x70*x247 + 12 x71*x85 + 18 x71*x99 + 2 x71*x122 - 16 x71*x193
      - 18 x71*x198 - 14 x72*x101 + 12 x72*x171 + 18 x72*x197 + 18 x72*x237
      + 2 x73*x75 + 18 x73*x161 - 8 x73*x199 - 10 x74*x77 + 14 x74*x139
      + 16 x74*x243 - 2 x75*x195 - 6 x75*x213 - 16 x75*x214 - 18 x76*x102
      + 16 x76*x202 + 6 x76*x220 + 18 x76*x248 + 6 x77*x83 + 6 x77*x93
      - 6 x77*x209 - 12 x78*x83 + 18 x78*x168 - 20 x78*x217 - 16 x78*x236
      - 10 x79*x86 - 8 x79*x127 - 8 x79*x185 + 16 x80*x106 - 8 x80*x159
      + 12 x80*x237 + 10 x81*x95 - 16 x81*x102 - 14 x82*x84 - 8 x82*x156
      + 18 x82*x172 + 10 x82*x207 + 2 x82*x226 - 14 x83*x98 + 16 x83*x215
      - 14 x84*x188 + 12 x84*x239 + 10 x85*x169 - 8 x85*x218 + 20 x86*x93
      + 6 x86*x121 + 4 x86*x215 - 16 x87*x139 - 8 x87*x172 - 4 x87*x213
      + 14 x87*x222 + 6 x88*x119 + 6 x88*x170 + 8 x88*x185 - 4 x88*x210
      - 8 x89*x101 - 16 x89*x123 + 4 x89*x192 + 8 x90*x146 + 12 x90*x177
      - 8 x90*x204 - 2 x90*x223 + 10 x91*x94 - 4 x91*x233 - 20 x92*x122
      + 12 x92*x244 + 14 x93*x157 - 12 x93*x158 + 16 x93*x162 + 6 x94*x118
      - 2 x94*x218 + 10 x94*x222 + 12 x95*x102 + 4 x95*x126 - 4 x95*x144
      + 4 x95*x216 + 8 x96*x156 + 16 x97*x142 - 20 x97*x171 + 18 x97*x239
      + 14 x98*x104 + 12 x98*x119 - 8 x98*x153 + 2 x99*x162 + 12 x99*x238
      + 8 x100*x145 - 6 x100*x174 + 2 x100*x187 + 4 x100*x249 + 2 x101*x151
      + 4 x101*x200 - 2 x102*x190 + 16 x103*x114 - 16 x103*x123 - 10 x103*x206
      + 6 x103*x211 - 2 x104*x179 - 14 x104*x216 + 2 x105*x111 - 8 x105*x150
      + 16 x105*x154 + 16 x105*x209 - 20 x106*x243 + 4 x107*x164 + 20 x107*x246
      - 2 x108*x149 + 12 x108*x191 - 2 x109*x116 - 16 x109*x189 - 20 x109*x213
      + 12 x110*x152 - 4 x110*x199 + 12 x110*x202 - 12 x110*x208 + 10 x111*x126
      + 20 x111*x168 + 4 x111*x230 - 4 x112*x138 - 18 x112*x157 - 6 x112*x160
      + 2 x112*x194 + 2 x112*x235 + 14 x113*x137 + 16 x113*x153 + 8 x113*x174
      - 16 x114*x172 - 14 x114*x229 - 20 x115*x122 + 8 x115*x137 - 20 x115*x155
      + 16 x115*x163 + 12 x115*x245 - 16 x116*x132 + 6 x116*x165 + 6 x116*x179
      + 8 x117*x128 + 18 x117*x138 + 16 x117*x145 + 8 x118*x239 + 8 x118*x242
      - 20 x118*x247 + 10 x119*x134 + 10 x119*x140 - 10 x120*x140 + 2 x120*x188
      - 2 x120*x231 + 18 x121*x141 - 6 x121*x201 - 20 x121*x232 - 2 x122*x218
      - 20 x123*x137 - 4 x123*x231 - 14 x124*x166 + 18 x124*x186 + 2 x125*x129
      - 18 x125*x175 + 4 x125*x176 - 20 x126*x170 - 4 x126*x180 - 8 x127*x144
      + 8 x127*x171 + 18 x127*x228 - 10 x127*x248 - 14 x128*x142 - 14 x128*x229
      - 4 x128*x242 + 12 x129*x134 + 4 x129*x186 - 16 x129*x187 + 6 x129*x216
      - 8 x130*x133 + 14 x130*x223 + 10 x131*x134 + 4 x131*x206 + 10 x131*x212
      - 10 x132*x165 + 16 x132*x230 + 4 x133*x147 - 14 x133*x203 - 18 x134*x188
      - 2 x134*x210 + 14 x135*x242 - 20 x135*x249 + 16 x136*x169 + 16 x136*x227
      + 4 x136*x232 + 16 x137*x181 + 2 x138*x198 - 12 x138*x227 + 10 x139*x145
      - 4 x140*x189 - 8 x141*x143 - 10 x142*x216 - 8 x143*x211 + 20 x143*x221
      - 2 x143*x233 - 4 x144*x218 - 10 x146*x150 + 12 x146*x165 - 8 x146*x182
      - 16 x147*x200 + 16 x147*x211 - 8 x148*x195 + 6 x148*x225 + 8 x149*x168
      - 12 x150*x229 + 20 x151*x156 - 10 x151*x161 - 12 x151*x166 + 6 x152*x160
      + 18 x152*x228 - 14 x152*x244 - 18 x154*x182 - 14 x154*x194 - 12 x154*x195
      + 10 x154*x220 + 12 x155*x195 - 14 x155*x222 - 14 x155*x238 - 12 x156*x165
      + 6 x157*x164 - 4 x157*x194 - 4 x157*x198 + 2 x158*x167 + 4 x158*x190
      + 18 x158*x224 - 18 x159*x175 + 14 x159*x206 + 16 x159*x230 - 14 x160*x209
      - 10 x160*x213 + 18 x161*x167 - 16 x161*x224 - 6 x161*x246 - 6 x162*x235
      + 2 x163*x201 - 12 x163*x222 - 2 x163*x233 + 12 x164*x178 + 20 x164*x247
      + 10 x165*x219 + 20 x166*x172 + 10 x169*x234 + 10 x170*x190 - 20 x170*x226
      - 16 x170*x248 - 12 x173*x192 + 16 x173*x197 + 8 x173*x244 - 2 x174*x236
      + 2 x175*x244 - 8 x176*x208 + 8 x177*x223 + 12 x177*x226 + 20 x178*x179
      - 16 x178*x195 + 6 x178*x212 + 12 x180*x205 - 14 x181*x182 + 4 x181*x191
      - 18 x181*x237 + 6 x182*x205 - 16 x182*x210 + 10 x183*x184 - 20 x183*x189
      - 4 x183*x225 - 20 x184*x186 - 12 x184*x194 - 16 x185*x211 + 4 x186*x232
      - 8 x187*x204 - 14 x188*x204 - 20 x191*x225 + 10 x193*x217 + 16 x193*x224
      - 12 x196*x218 - 16 x196*x228 - 2 x196*x241 + 6 x197*x245 - 16 x198*x212
      - 20 x199*x233 + 16 x199*x235 + 12 x200*x207 - 20 x201*x231 + 6 x201*x232
      + 2 x203*x235 + 8 x203*x237 + 20 x204*x208 - 10 x204*x215 + 8 x206*x209
      - 2 x210*x233 - 18 x210*x240 - 6 x212*x219 + 6 x214*x229 - 2 x215*x238
      + 8 x215*x248 + 8 x217*x241 - 6 x219*x221 + 6 x220*x242 - 2 x220*x246
      + 6 x221*x227 - 14 x225*x234 + 8 x228*x231 + 12 x230*x243 - 14 x231*x238
      + 12 x235*x247 - 8 x236*x240 - 14 x240*x244 ]/2
Subject To
 c0: - 2 x95 - 2 x101 - x111 - x153 + 2 x206 = 0
 c1: - 2 x65 + 2 x84 + x183 - 2 x207 - 2 x214 = -1
 c2: x19 + x54 + x85 + 2 x162 - x215 = 0
 c3: - 2 x61 + x94 - x113 - 2 x232 - 2 x236 = -2
 c4: - 2 x90 + 2 x91 - x107 - x129 - x153 = -2
 c5: - x67 + x84 - x115 + 2 x152 + x199 = -2
 c6: 2 x13 - 2 x50 + 2 x121 - x186 - x192 = 0
 c7: x83 - x126 - x154 + 2 x223 - x242 = -1
 c8: - 2 x7 - x16 - 2 x52 + x163 - 2 x228 = 0
 c9: - x118 - 2 x150 - 2 x163 + x164 + 2 x247 = -1
 c10: x46 - 2 x140 + 2 x152 + x153 - 2 x239 = 0
 c11: x41 - 2 x98 - x196 - 2 x209 - 2 x243 = -2
 c12: x29 + 2 x71 - x148 + x167 - 2 x171 = -1
 c13: - 2 x167 + 2 x197 - 2 x220 + x240 + x244 = 1
 c14: x19 - 2 x167 + x186 - 2 x239 - 2 x243 = -1
 c15: 2 x48 + x86 + x126 - 2 x146 + x245 = -1
 c16: - 2 x17 - 2 x77 - x105 + 2 x140 - x233 = -1
 c17: - 2 x9 + x50 - x78 + x90 - 2 x103 = 1
 c18: - x9 - x17 - x50 + x53 + 2 x220 = 0
 c19: - x23 - 2 x41 - x128 + x176 - x202 = 0
 c20: 2 x24 - x94 - 2 x146 - 2 x183 + 2 x249 = 0
 c21: - x22 - 2 x26 - 2 x122 + 2 x170 + x226 = 1
 c22: - 2 x45 - x141 - x165 - x187 - 2 x213 = 0
 c23: 2 x136 + x145 - 2 x149 - x224 - x226 = 0
 c24: 2 x12 - 2 x22 + 2 x42 - x139 + 2 x167 = 1

Bounds
 0 <= x0 <= 1
 0 <= x1 <= 1
 0 <= x2 <= 1
 0 <= x3 <= 1
 0 <= x4 <= 1
 0 <= x5 <= 1
 0 <= x6 <= 1
 0 <= x7 <= 1
 0 <= x8 <= 1
 0 <= x9 <= 1
 0 <= x10 <= 1
 0 <= x11 <= 1
 0 <= x12 <= 1
 0 <= x13 <= 1
 0 <= x14 <= 1
 0 <= x15 <= 1
 0 <= x16 <= 1
 0 <= x17 <= 1
 0 <= x18 <= 1
 0 <= x19 <= 1
 0 <= x20 <= 1
 0 <= x21 <= 1
 0 <= x22 <= 1
 0 <= x23 <= 1
 0 <= x24 <= 1
 0 <= x25 <= 1
 0 <= x26 <= 1
 0 <= x27 <= 1
 0 <= x28 <= 1
 0 <= x29 <= 1
 0 <= x30 <= 1
 0 <= x31 <= 1
 0 <= x32 <= 1
 0 <= x33 <= 1
 0 <= x34 <= 1
 0 <= x35 <= 1
 0 <= x36 <= 1
 0 <= x37 <= 1
 0 <= x38 <= 1
 0 <= x39 <= 1
 0 <= x40 <= 1
 0 <= x41 <= 1
 0 <= x42 <= 1
 0 <= x43 <= 1
 0 <= x44 <= 1
 0 <= x45 <= 1
 0 <= x46 <= 1
 0 <= x47 <= 1
 0 <= x48 <= 1
 0 <= x49 <= 1
 0 <= x50 <= 1
 0 <= x51 <= 1
 0 <= x52 <= 1
 0 <= x53 <= 1
 0 <= x54 <= 1
 0 <= x55 <= 1
 0 <= x56 <= 1
 0 <= x57 <= 1
 0 <= x58 <= 1
 0 <= x59 <= 1
 0 <= x60 <= 1
 0 <= x61 <= 1
 0 <= x62 <= 1
 0 <= x63 <= 1
 0 <= x64 <= 1
 0 <= x65 <= 1
 0 <= x66 <= 1
 0 <= x67 <= 1
 0 <= x68 <= 1
 0 <= x69 <= 1
 0 <= x70 <= 1
 0 <= x71 <= 1
 0 <= x72 <= 1
 0 <= x73 <= 1
 0 <= x74 <= 1
 0 <= x75 <= 1
 0 <= x76 <= 1
 0 <= x77 <= 1
 0 <= x78 <= 1
 0 <= x79 <= 1
 0 <= x80 <= 1
 0 <= x81 <= 1
 0 <= x82 <= 1
 0 <= x83 <= 1
 0 <= x84 <= 1
 0 <= x85 <= 1
 0 <= x86 <= 1
 0 <= x87 <= 1
 0 <= x88 <= 1
 0 <= x89 <= 1
 0 <= x90 <= 1
 0 <= x91 <= 1
 0 <= x92 <= 1
 0 <= x93 <= 1
 0 <= x94 <= 1
 0 <= x95 <= 1
 0 <= x96 <= 1
 0 <= x97 <= 1
 0 <= x98 <= 1
 0 <= x99 <= 1
 0 <= x100 <= 1
 0 <= x101 <= 1
 0 <= x102 <= 1
 0 <= x103 <= 1
 0 <= x104 <= 1
 0 <= x105 <= 1
 0 <= x106 <= 1
 0 <= x107 <= 1
 0 <= x108 <= 1
 0 <= x109 <= 1
 0 <= x110 <= 1
 0 <= x111 <= 1
 0 <= x112 <= 1
 0 <= x113 <= 1
 0 <= x114 <= 1
 0 <= x115 <= 1
 0 <= x116 <= 1
 0 <= x117 <= 1
 0 <= x118 <= 1
 0 <= x119 <= 1
 0 <= x120 <= 1
 0 <= x121 <= 1
 0 <= x122 <= 1
 0 <= x123 <= 1
 0 <= x124 <= 1
 0 <= x125 <= 1
 0 <= x126 <= 1
 0 <= x127 <= 1
 0 <= x128 <= 1
 0 <= x129 <= 1
 0 <= x130 <= 1
 0 <= x131 <= 1
 0 <= x132 <= 1
 0 <= x133 <= 1
 0 <= x134 <= 1
 0 <= x135 <= 1
 0 <= x136 <= 1
 0 <= x137 <= 1
 0 <= x138 <= 1
 0 <= x139 <= 1
 0 <= x140 <= 1
 0 <= x141 <= 1
 0 <= x142 <= 1
 0 <= x143 <= 1
 0 <= x144 <= 1
 0 <= x145 <= 1
 0 <= x146 <= 1
 0 <= x147 <= 1
 0 <= x148 <= 1
 0 <= x149 <= 1
 0 <= x150 <= 1
 0 <= x151 <= 1
 0 <= x152 <= 1
 0 <= x153 <= 1
 0 <= x154 <= 1
 0 <= x155 <= 1
 0 <= x156 <= 1
 0 <= x157 <= 1
 0 <= x158 <= 1
 0 <= x159 <= 1
 0 <= x160 <= 1
 0 <= x161 <= 1
 0 <= x162 <= 1
 0 <= x163 <= 1
 0 <= x164 <= 1
 0 <= x165 <= 1
 0 <= x166 <= 1
 0 <= x167 <= 1
 0 <= x168 <= 1
 0 <= x169 <= 1
 0 <= x170 <= 1
 0 <= x171 <= 1
 0 <= x172 <= 1
 0 <= x173 <= 1
 0 <= x174 <= 1
 0 <= x175 <= 1
 0 <= x176 <= 1
 0 <= x177 <= 1
 0 <= x178 <= 1
 0 <= x179 <= 1
 0 <= x180 <= 1
 0 <= x181 <= 1
 0 <= x182 <= 1
 0 <= x183 <= 1
 0 <= x184 <= 1
 0 <= x185 <= 1
 0 <= x186 <= 1
 0 <= x187 <= 1
 0 <= x188 <= 1
 0 <= x189 <= 1
 0 <= x190 <= 1
 0 <= x191 <= 1
 0 <= x192 <= 1
 0 <= x193 <= 1
 0 <= x194 <= 1
 0 <= x195 <= 1
 0 <= x196 <= 1
 0 <= x197 <= 1
 0 <= x198 <= 1
 0 <= x199 <= 1
 0 <= x200 <= 1
 0 <= x201 <= 1
 0 <= x202 <= 1
 0 <= x203 <= 1
 0 <= x204 <= 1
 0 <= x205 <= 1
 0 <= x206 <= 1
 0 <= x207 <= 1
 0 <= x208 <= 1
 0 <= x209 <= 1
 0 <= x210 <= 1
 0 <= x211 <= 1
 0 <= x212 <= 1
 0 <= x213 <= 1
 0 <= x214 <= 1
 0 <= x215 <= 1
 0 <= x216 <= 1
 0 <= x217 <= 1
 0 <= x218 <= 1
 0 <= x219 <= 1
 0 <= x220 <= 1
 0 <= x221 <= 1
 0 <= x222 <= 1
 0 <= x223 <= 1
 0 <= x224 <= 1
 0 <= x225 <= 1
 0 <= x226 <= 1
 0 <= x227 <= 1
 0 <= x228 <= 1
 0 <= x229 <= 1
 0 <= x230 <= 1
 0 <= x231 <= 1
 0 <= x232 <= 1
 0 <= x233 <= 1
 0 <= x234 <= 1
 0 <= x235 <= 1
 0 <= x236 <= 1
 0 <= x237 <= 1
 0 <= x238 <= 1
 0 <= x239 <= 1
 0 <= x240 <= 1
 0 <= x241 <= 1
 0 <= x242 <= 1
 0 <= x243 <= 1
 0 <= x244 <= 1
 0 <= x245 <= 1
 0 <= x246 <= 1
 0 <= x247 <= 1
 0 <= x248 <= 1
 0 <= x249 <= 1

Binaries
 x0 x1 x2 x3 x4 x5 x6 x7 x8 x9 x10 x11 x12 x13 x14 x15 x16 x17 x18 x19 x20 x21
 x22 x23 x24 x25 x26 x27 x28 x29 x30 x31 x32 x33 x34 x35 x36 x37 x38 x39 x40 x41
 x42 x43 x44 x45 x46 x47 x48 x49 x50 x51 x52 x53 x54 x55 x56 x57 x58 x59 x60 x61
 x62 x63 x64 x65 x66 x67 x68 x69 x70 x71 x72 x73 x74 x75 x76 x77 x78 x79 x80 x81
 x82 x83 x84 x85 x86 x87 x88 x89 x90 x91 x92 x93 x94 x95 x96 x97 x98 x99 x100
 x101 x102 x103 x104 x105 x106 x107 x108 x109 x110 x111 x112 x113 x114 x115 x116
 x117 x118 x119 x120 x121 x122 x123 x124 x125 x126 x127 x128 x129 x130 x131 x132
 x133 x134 x135 x136 x137 x138 x139 x140 x141 x142 x143 x144 x145 x146 x147 x148
 x149 x150 x151 x152 x153 x154 x155 x156 x157 x158 x159 x160 x161 x162 x163 x164
 x165 x166 x167 x168 x169 x170 x171 x172 x173 x174 x175 x176 x177 x178 x179 x180
 x181 x182 x183 x184 x185 x186 x187 x188 x189 x190 x191 x192 x193 x194 x195 x196
 x197 x198 x199 x200 x201 x202 x203 x204 x205 x206 x207 x208 x209 x210 x211 x212
 x213 x214 x215 x216 x217 x218 x219 x220 x221 x222 x223 x224 x225 x226 x227 x228
 x229 x230 x231 x232 x233 x234 x235 x236 x237 x238 x239 x240 x241 x242 x243 x244
 x245 x246 x247 x248 x249
End
